qbf_easy_train/easy_5814_SAT.qdimacs
p cnf 20 47
a 17 6 1 0
e 2 3 4 5 7 8 9 10 11 12 13 14 15 16 18 19 20 0
1 2 -3 0
-1 -2 -3 0
1 -2 3 0
-1 2 3 0
-3 -4 -5 0
3 4 -5 0
-3 4 5 0
3 -4 5 0
-6 7 -8 0
6 -7 -8 0
-6 -7 8 0
6 7 8 0
10 -2 0
10 9 0
2 -9 -10 0
-8 10 -11 0
8 -10 -11 0
-8 -10 11 0
8 10 11 0
-12 5 0
-12 11 0
-5 -11 12 0
-2 13 -14 0
2 -13 -14 0
-2 -13 14 0
2 13 14 0
-15 1 0
-15 -4 0
-1 4 15 0
-17 -16 0
-17 13 0
16 -13 17 0
-18 15 0
-18 17 0
-15 -17 18 0
-19 -14 0
-19 -18 0
14 18 19 0
-12 19 -20 0
12 -19 -20 0
-12 -19 20 0
12 19 20 0
13 -9 -7 12 0
12 -16 -10 0
14 5 10 16 -1 11 0
-8 20 -16 -19 0
20 0
