sat_easy_train/easy_5814_SAT.dimacs
p cnf 139 466
-3 1 0
-3 2 0
-1 -2 3 0
-6 4 0
-6 5 0
-4 -5 6 0
-3 -6 -7 0
3 6 -7 0
-3 6 7 0
3 -6 7 0
-9 -8 0
-9 5 0
8 -5 9 0
7 9 -10 0
-7 -9 -10 0
7 -9 10 0
-7 9 10 0
11 12 -13 0
-11 -12 -13 0
11 -12 13 0
-11 12 13 0
-15 12 0
-15 -14 0
-12 14 15 0
-16 13 0
-16 15 0
-13 -15 16 0
17 -10 0
17 -16 0
10 16 -17 0
-18 4 -19 0
18 -4 -19 0
-18 -4 19 0
18 4 19 0
20 -19 0
20 -19 0
19 -20 0
21 20 0
21 -14 0
-20 14 -21 0
14 24 -25 0
-14 -24 -25 0
14 -24 25 0
-14 24 25 0
23 -25 -26 0
-23 25 -26 0
23 25 26 0
-23 -25 26 0
-22 -26 -27 0
22 26 -27 0
-22 26 27 0
22 -26 27 0
-28 12 0
-28 -23 0
-12 23 28 0
-29 -27 0
-29 28 0
27 -28 29 0
30 -9 0
30 29 0
9 -29 -30 0
-14 4 -31 0
14 -4 -31 0
-14 -4 31 0
14 4 31 0
-32 31 0
-32 -9 0
-31 9 32 0
33 30 0
33 32 0
-30 -32 -33 0
34 25 -35 0
-34 -25 -35 0
34 -25 35 0
-34 25 35 0
36 33 0
36 -35 0
-33 35 -36 0
38 -2 0
38 37 0
2 -37 -38 0
39 38 0
39 -1 0
-38 1 -39 0
-40 -8 0
-40 -7 0
8 7 40 0
14 2 -41 0
-14 -2 -41 0
14 -2 41 0
-14 2 41 0
-7 41 -42 0
7 -41 -42 0
-7 -41 42 0
7 41 42 0
-43 -1 0
-43 -42 0
1 42 43 0
-43 34 -44 0
43 -34 -44 0
-43 -34 44 0
43 34 44 0
45 34 0
45 -6 0
-34 6 -45 0
46 -45 0
46 -8 0
45 8 -46 0
47 -46 0
47 1 0
46 -1 -47 0
48 47 0
48 46 0
-47 -46 -48 0
49 -44 0
49 48 0
44 -48 -49 0
-40 -49 -50 0
40 49 -50 0
-40 49 50 0
40 -49 50 0
-39 50 -51 0
39 -50 -51 0
-39 -50 51 0
39 50 51 0
-52 36 0
-52 51 0
-36 -51 52 0
-21 -52 -53 0
21 52 -53 0
-21 52 53 0
21 -52 53 0
54 17 0
54 -53 0
-17 53 -54 0
-15 -1 -55 0
15 1 -55 0
-15 1 55 0
15 -1 55 0
-57 14 0
-57 56 0
-14 -56 57 0
-58 55 0
-58 -57 0
-55 57 58 0
-59 25 0
-59 13 0
-25 -13 59 0
60 -59 0
60 41 0
59 -41 -60 0
-20 60 -61 0
20 -60 -61 0
-20 -60 61 0
20 60 61 0
58 61 -62 0
-58 -61 -62 0
58 -61 62 0
-58 61 62 0
3 -63 0
-3 -63 0
47 63 -64 0
-47 -63 -64 0
47 -63 64 0
-47 63 64 0
45 -24 -65 0
-45 24 -65 0
45 24 65 0
-45 -24 65 0
65 41 -66 0
-65 -41 -66 0
65 -41 66 0
-65 41 66 0
67 -66 0
67 -42 0
66 42 -67 0
-68 -64 0
-68 -67 0
64 67 68 0
69 20 0
69 57 0
-20 -57 -69 0
-70 55 0
-70 47 0
-55 -47 70 0
-26 70 -71 0
26 -70 -71 0
-26 -70 71 0
26 70 71 0
-72 -41 0
-72 -71 0
41 71 72 0
73 2 0
73 47 0
-2 -47 -73 0
74 -8 0
74 -31 0
8 31 -74 0
75 73 0
75 -74 0
-73 74 -75 0
-76 72 0
-76 75 0
-72 -75 76 0
-77 69 0
-77 -76 0
-69 76 77 0
68 -77 -78 0
-68 77 -78 0
68 77 78 0
-68 -77 78 0
-79 -62 0
-79 -78 0
62 78 79 0
-67 80 0
67 80 0
81 45 0
81 -23 0
-45 23 -81 0
-82 -81 0
-82 -31 0
81 31 82 0
83 80 0
83 82 0
-80 -82 -83 0
84 56 0
84 12 0
-56 -12 -84 0
85 18 0
85 84 0
-18 -84 -85 0
-86 -85 0
-86 84 0
85 -84 86 0
-87 -83 0
-87 -86 0
83 86 87 0
-88 -79 0
-88 87 0
79 -87 88 0
-89 -3 0
-89 23 0
3 -23 89 0
90 37 0
90 89 0
-37 -89 -90 0
-91 60 0
-91 47 0
-60 -47 91 0
55 26 -92 0
-55 -26 -92 0
55 -26 92 0
-55 26 92 0
-22 -11 -93 0
22 11 -93 0
-22 11 93 0
22 -11 93 0
-94 92 0
-94 -93 0
-92 93 94 0
-95 91 0
-95 94 0
-91 -94 95 0
96 90 0
96 -95 0
-90 95 -96 0
97 -15 0
97 -27 0
15 27 -97 0
-98 -96 0
-98 -97 0
96 97 98 0
88 -98 -99 0
-88 98 -99 0
88 98 99 0
-88 -98 99 0
54 -99 -100 0
-54 99 -100 0
54 99 100 0
-54 -99 100 0
101 3 0
101 -4 0
-3 4 -101 0
-102 37 0
-102 -101 0
-37 101 102 0
13 57 -103 0
-13 -57 -103 0
13 -57 103 0
-13 57 103 0
-65 -103 -104 0
65 103 -104 0
-65 103 104 0
65 -103 104 0
-105 102 0
-105 -104 0
-102 104 105 0
-106 -38 0
-106 -20 0
38 20 106 0
107 101 0
107 -67 0
-101 67 -107 0
108 -106 0
108 -107 0
106 107 -108 0
-109 105 0
-109 108 0
-105 -108 109 0
12 -56 -110 0
-12 56 -110 0
12 56 110 0
-12 -56 110 0
111 -109 0
111 110 0
109 -110 -111 0
-112 -80 0
-112 27 0
80 -27 112 0
113 -42 0
113 -5 0
42 5 -113 0
114 -112 0
114 -113 0
112 113 -114 0
115 -24 0
115 3 0
24 -3 -115 0
116 -74 0
116 18 0
74 -18 -116 0
-28 116 -117 0
28 -116 -117 0
-28 -116 117 0
28 116 117 0
-118 115 0
-118 117 0
-115 -117 118 0
119 114 0
119 -118 0
-114 118 -119 0
-120 111 0
-120 119 0
-111 -119 120 0
-121 100 0
-121 120 0
-100 -120 121 0
59 -25 -122 0
-59 25 -122 0
59 25 122 0
-59 -25 122 0
-124 -123 0
-124 9 0
123 -9 124 0
-125 73 0
-125 -31 0
-73 31 125 0
126 124 0
126 -125 0
-124 125 -126 0
-31 11 -127 0
31 -11 -127 0
-31 -11 127 0
31 11 127 0
128 -127 0
128 127 0
-129 126 0
-129 -128 0
-126 128 129 0
130 122 0
130 129 0
-122 -129 -130 0
65 47 -131 0
-65 -47 -131 0
65 -47 131 0
-65 47 131 0
6 60 -132 0
-6 -60 -132 0
6 -60 132 0
-6 60 132 0
133 -14 0
133 14 0
134 -74 0
134 133 0
74 -133 -134 0
135 -134 0
135 103 0
134 -103 -135 0
-132 135 -136 0
132 -135 -136 0
-132 -135 136 0
132 135 136 0
131 136 -137 0
-131 -136 -137 0
131 -136 137 0
-131 136 137 0
-130 -137 -138 0
130 137 -138 0
-130 137 138 0
130 -137 138 0
-121 -138 -139 0
121 138 -139 0
-121 138 139 0
121 -138 139 0
-61 -134 120 32 -34 0
53 -45 -64 -14 139 -57 0
-88 -80 34 -53 0
1 55 -64 -101 79 0
-69 -105 37 -106 0
-113 -51 -86 67 -123 0
88 -115 -102 46 0
81 8 -115 26 0
-54 43 -125 -64 0
-80 13 -9 4 76 0
103 77 -12 -76 3 -136 0
-61 -97 74 -108 0
44 52 -107 94 10 0
-51 -121 16 133 -28 0
3 -85 56 51 95 -64 0
-44 118 -4 134 0
-17 -121 -76 56 0
-9 -46 -33 0
24 -102 98 -138 -62 0
6 131 -22 82 65 139 0
77 49 -136 -126 -105 115 0
118 -123 8 -17 81 0
-26 -125 0
51 -50 74 109 -62 16 0
-134 -135 0
135 73 95 -93 -33 0
-76 138 17 -40 -28 0
-110 -64 -131 -37 0
-134 60 0
-102 97 -111 48 -54 0
38 -98 0
88 79 103 4 0
-58 138 -22 63 -24 0
34 44 -66 -109 68 0
-123 -111 24 0
-19 -98 0
-59 26 -5 -136 -13 0
-12 34 -42 -95 0
-87 -124 -110 6 -104 95 0
-61 -10 0
105 -52 -8 97 95 0
-87 58 0
-138 -62 0
10 28 0
-101 27 -91 26 74 0
34 91 0
38 139 24 0
-94 -80 90 0
-66 -43 98 0
-129 131 0
120 67 77 -134 32 -34 0
-75 -45 0
13 -123 101 -22 0
-18 -125 13 0
-48 26 -40 -103 0
-68 33 121 24 0
-26 85 -50 -27 81 -138 0
-118 40 -72 -2 0
33 -81 80 66 0
128 68 -29 -43 31 -96 0
-139 1 23 0
139 0
